Maximize
  - 1.699142910408 edge_0_2_0_0 - 3.1302319790467 edge_0_3_0_0
   - 1.947572672262 edge_0_4_0_0 - 2.7342983536338 edge_0_5_0_0
   - 1.452066862173 edge_0_6_0_0 - 2.613329006132 edge_0_7_0_0
   - 0.5052819807928001 edge_0_25_0_0 - 0.44439410992094 edge_0_27_0_0
   + 0.2306052632674363 edge_1_2_0_0 + 0.480088899958974 edge_1_3_0_0
   + 0.1241452640715433 edge_1_5_0_0 - 0.3995128316313128 edge_1_6_0_0
   - 0.1938005116270962 edge_1_7_0_0 - 0.9938598903604707 edge_1_8_0_0
   - 0.3653541208891409 edge_1_11_0_0 - 0.5596709016454481 edge_1_29_0_0
   + 0.908237500741903 edge_2_1_0_0 + 0.6245616728224286 edge_2_3_0_0
   + 1.145828407333173 edge_2_4_0_0 + 0.6619455402195066 edge_2_5_0_0
   + 0.5088021915235891 edge_2_6_0_0 + 0.7217451564352471 edge_2_7_0_0
   - 0.5042368447869231 edge_2_8_0_0 + 0.1789962329731385 edge_2_10_0_0
   - 0.2996389434360975 edge_2_11_0_0 - 0.0141008663157419 edge_2_12_0_0
   + 0.3341729882316192 edge_2_25_0_0 + 0.3775651394386412 edge_2_27_0_0
   + 0.1602917469007323 edge_2_29_0_0 + 1.983855114280786 edge_3_1_0_0
   + 2.588854789248342 edge_3_2_0_0 + 0.7619785141060771 edge_3_4_0_0
   + 0.7746495439160362 edge_3_5_0_0 + 0.0881211873378135 edge_3_6_0_0
   + 0.6481086171294772 edge_3_7_0_0 + 0.0408283120626117 edge_3_8_0_0
   + 0.4415287397526427 edge_3_11_0_0 - 0.6047532059047862 edge_3_25_0_0
   + 0.624806702321438 edge_3_29_0_0 + 0.0604817649536804 edge_4_2_0_0
   + 3.051315348980619 edge_4_3_0_0 + 0.5486331618170368 edge_4_5_0_0
   + 2.711233046977463 edge_4_6_0_0 + 1.653016266139846 edge_4_7_0_0
   + 0.0909533571975608 edge_4_9_0_0 - 0.4732225784447265 edge_4_10_0_0
   + 0.0361925230700815 edge_4_12_0_0 + 0.4754882978718867 edge_4_25_0_0
   + 0.3739988465269051 edge_4_27_0_0 + 2.79690536713208 edge_4_29_0_0
   + 0.0484448450923531 edge_5_1_0_0 + 0.1604253067716246 edge_5_2_0_0
   + 0.4198742146652836 edge_5_3_0_0 - 0.0273353109713698 edge_5_6_0_0
   + 0.0759752976394753 edge_5_7_0_0 - 0.5288319403220718 edge_5_8_0_0
   - 0.0491847341812187 edge_5_11_0_0 + 0.0141845278119793 edge_5_29_0_0
   + 0.2851985421746841 edge_6_1_0_0 + 0.7164122725515291 edge_6_2_0_0
   + 1.819986396829432 edge_6_3_0_0 + 0.4468807580110191 edge_6_4_0_0
   + 3.346778420108576 edge_6_5_0_0 + 1.019840696291842 edge_6_7_0_0
   + 0.0808820770343998 edge_6_8_0_0 + 0.2449993590928274 edge_6_9_0_0
   - 0.2288048481699199 edge_6_10_0_0 + 0.4947905905900145 edge_6_11_0_0
   - 0.2617301811328589 edge_6_12_0_0 + 0.2685700161268684 edge_6_25_0_0
   - 0.1540872027637385 edge_6_27_0_0 + 1.42647557791275 edge_6_29_0_0
   - 0.641807848505598 edge_7_1_0_0 - 0.654925987829063 edge_7_2_0_0
   - 0.808993475777223 edge_7_3_0_0 - 0.9167590032861743 edge_7_5_0_0
   - 1.254989839635507 edge_7_6_0_0 - 1.031856304917365 edge_7_8_0_0
   - 0.0826034955796464 edge_7_9_0_0 - 0.257742019631418 edge_7_11_0_0
   - 0.7747196212436678 edge_7_29_0_0 - 0.7865843737683924 edge_8_1_0_0
   - 0.8295714402283183 edge_8_2_0_0 - 0.6803264596096557 edge_8_3_0_0
   - 0.8953431276112988 edge_8_5_0_0 - 0.285028076261619 edge_8_7_0_0
   + 0.2495505609210429 edge_8_11_0_0 - 0.1408961232017373 edge_8_29_0_0
   - 0.6277341426635042 edge_9_4_0_0 - 0.4864755055244732 edge_9_6_0_0
   + 0.2317148431876345 edge_9_7_0_0 - 0.1823681528087585 edge_9_10_0_0
   - 0.1425872933153391 edge_9_12_0_0 - 0.00717156882121117 edge_9_25_0_0
   - 0.1540026278890035 edge_9_27_0_0 + 0.190762020708893 edge_9_29_0_0
   - 0.0981483119291394 edge_10_9_0_0 + 0.0647188309166868 edge_10_12_0_0
   + 0.223015596116158 edge_10_27_0_0 + 0.0778328843248804 edge_11_1_0_0
   + 0.0418854716020064 edge_11_2_0_0 - 0.3153064015511558 edge_11_3_0_0
   - 0.2957638692801071 edge_11_5_0_0 - 0.1951473893183004 edge_11_6_0_0
   + 0.0748006031377854 edge_11_7_0_0 + 1.025686954824782 edge_11_8_0_0
   + 0.2973705253120539 edge_11_29_0_0 - 0.6201028452414297 edge_12_2_0_0
   - 0.5676035472772584 edge_12_5_0_0 - 0.0464167222181982 edge_12_9_0_0
   + 0.0407682785005868 edge_12_10_0_0 - 0.0177041506573317 edge_12_25_0_0
   + 0.1376204138343929 edge_12_27_0_0 + 0.3818219828887143 edge_12_29_0_0
   + 0.1292277061261765 edge_25_2_0_0 + 0.5196763088975009 edge_25_3_0_0
   + 0.5177532457292348 edge_25_4_0_0 + 0.3111651854994839 edge_25_5_0_0
   + 0.5964505894272746 edge_25_6_0_0 + 0.7640529332420899 edge_25_7_0_0
   + 0.7390796379087254 edge_25_9_0_0 + 1.476102907817647 edge_25_10_0_0
   + 0.420291061958767 edge_25_12_0_0 + 0.901742582320806 edge_25_27_0_0
   + 1.381270368733746 edge_25_29_0_0 - 0.0257249656848288 edge_27_2_0_0
   - 0.1457157391549802 edge_27_3_0_0 + 0.1154736515509314 edge_27_4_0_0
   - 0.0423797068443336 edge_27_5_0_0 + 0.2354015317593566 edge_27_6_0_0
   + 0.506393779545694 edge_27_7_0_0 + 0.4725937483079564 edge_27_9_0_0
   + 0.687272202357998 edge_27_10_0_0 + 0.6997997932050759 edge_27_12_0_0
   + 0.3729534716388094 edge_27_25_0_0 + 1.267899233480227 edge_27_29_0_0
   - 0.7772683483592059 edge_29_8_0_0 - 0.5182281070810816 edge_29_11_0_0
   - 0.5451816550024189 edge_29_12_0_0
Subject To
 one_parent_1: edge_2_1_0_0 + edge_3_1_0_0 + edge_5_1_0_0 + edge_6_1_0_0
   + edge_7_1_0_0 + edge_8_1_0_0 + edge_11_1_0_0 = 1
 consume_one_flow_unit_1: - flow_1_2_0_0 - flow_1_3_0_0 - flow_1_5_0_0
   - flow_1_6_0_0 - flow_1_7_0_0 - flow_1_8_0_0 - flow_1_11_0_0
   - flow_1_29_0_0 + flow_2_1_0_0 + flow_3_1_0_0 + flow_5_1_0_0
   + flow_6_1_0_0 + flow_7_1_0_0 + flow_8_1_0_0 + flow_11_1_0_0 = 1
 one_parent_2: edge_0_2_0_0 + edge_1_2_0_0 + edge_3_2_0_0 + edge_4_2_0_0
   + edge_5_2_0_0 + edge_6_2_0_0 + edge_7_2_0_0 + edge_8_2_0_0
   + edge_11_2_0_0 + edge_12_2_0_0 + edge_25_2_0_0 + edge_27_2_0_0 = 1
 consume_one_flow_unit_2: flow_0_2_0_0 + flow_1_2_0_0 - flow_2_1_0_0
   - flow_2_3_0_0 - flow_2_4_0_0 - flow_2_5_0_0 - flow_2_6_0_0
   - flow_2_7_0_0 - flow_2_8_0_0 - flow_2_10_0_0 - flow_2_11_0_0
   - flow_2_12_0_0 - flow_2_25_0_0 - flow_2_27_0_0 - flow_2_29_0_0
   + flow_3_2_0_0 + flow_4_2_0_0 + flow_5_2_0_0 + flow_6_2_0_0
   + flow_7_2_0_0 + flow_8_2_0_0 + flow_11_2_0_0 + flow_12_2_0_0
   + flow_25_2_0_0 + flow_27_2_0_0 = 1
 one_parent_3: edge_0_3_0_0 + edge_1_3_0_0 + edge_2_3_0_0 + edge_4_3_0_0
   + edge_5_3_0_0 + edge_6_3_0_0 + edge_7_3_0_0 + edge_8_3_0_0
   + edge_11_3_0_0 + edge_25_3_0_0 + edge_27_3_0_0 = 1
 consume_one_flow_unit_3: flow_0_3_0_0 + flow_1_3_0_0 + flow_2_3_0_0
   - flow_3_1_0_0 - flow_3_2_0_0 - flow_3_4_0_0 - flow_3_5_0_0
   - flow_3_6_0_0 - flow_3_7_0_0 - flow_3_8_0_0 - flow_3_11_0_0
   - flow_3_25_0_0 - flow_3_29_0_0 + flow_4_3_0_0 + flow_5_3_0_0
   + flow_6_3_0_0 + flow_7_3_0_0 + flow_8_3_0_0 + flow_11_3_0_0
   + flow_25_3_0_0 + flow_27_3_0_0 = 1
 one_parent_4: edge_0_4_0_0 + edge_2_4_0_0 + edge_3_4_0_0 + edge_6_4_0_0
   + edge_9_4_0_0 + edge_25_4_0_0 + edge_27_4_0_0 = 1
 consume_one_flow_unit_4: flow_0_4_0_0 + flow_2_4_0_0 + flow_3_4_0_0
   - flow_4_2_0_0 - flow_4_3_0_0 - flow_4_5_0_0 - flow_4_6_0_0
   - flow_4_7_0_0 - flow_4_9_0_0 - flow_4_10_0_0 - flow_4_12_0_0
   - flow_4_25_0_0 - flow_4_27_0_0 - flow_4_29_0_0 + flow_6_4_0_0
   + flow_9_4_0_0 + flow_25_4_0_0 + flow_27_4_0_0 = 1
 one_parent_5: edge_0_5_0_0 + edge_1_5_0_0 + edge_2_5_0_0 + edge_3_5_0_0
   + edge_4_5_0_0 + edge_6_5_0_0 + edge_7_5_0_0 + edge_8_5_0_0
   + edge_11_5_0_0 + edge_12_5_0_0 + edge_25_5_0_0 + edge_27_5_0_0 = 1
 consume_one_flow_unit_5: flow_0_5_0_0 + flow_1_5_0_0 + flow_2_5_0_0
   + flow_3_5_0_0 + flow_4_5_0_0 - flow_5_1_0_0 - flow_5_2_0_0
   - flow_5_3_0_0 - flow_5_6_0_0 - flow_5_7_0_0 - flow_5_8_0_0
   - flow_5_11_0_0 - flow_5_29_0_0 + flow_6_5_0_0 + flow_7_5_0_0
   + flow_8_5_0_0 + flow_11_5_0_0 + flow_12_5_0_0 + flow_25_5_0_0
   + flow_27_5_0_0 = 1
 one_parent_6: edge_0_6_0_0 + edge_1_6_0_0 + edge_2_6_0_0 + edge_3_6_0_0
   + edge_4_6_0_0 + edge_5_6_0_0 + edge_7_6_0_0 + edge_9_6_0_0
   + edge_11_6_0_0 + edge_25_6_0_0 + edge_27_6_0_0 = 1
 consume_one_flow_unit_6: flow_0_6_0_0 + flow_1_6_0_0 + flow_2_6_0_0
   + flow_3_6_0_0 + flow_4_6_0_0 + flow_5_6_0_0 - flow_6_1_0_0
   - flow_6_2_0_0 - flow_6_3_0_0 - flow_6_4_0_0 - flow_6_5_0_0
   - flow_6_7_0_0 - flow_6_8_0_0 - flow_6_9_0_0 - flow_6_10_0_0
   - flow_6_11_0_0 - flow_6_12_0_0 - flow_6_25_0_0 - flow_6_27_0_0
   - flow_6_29_0_0 + flow_7_6_0_0 + flow_9_6_0_0 + flow_11_6_0_0
   + flow_25_6_0_0 + flow_27_6_0_0 = 1
 one_parent_7: edge_0_7_0_0 + edge_1_7_0_0 + edge_2_7_0_0 + edge_3_7_0_0
   + edge_4_7_0_0 + edge_5_7_0_0 + edge_6_7_0_0 + edge_8_7_0_0
   + edge_9_7_0_0 + edge_11_7_0_0 + edge_25_7_0_0 + edge_27_7_0_0 = 1
 consume_one_flow_unit_7: flow_0_7_0_0 + flow_1_7_0_0 + flow_2_7_0_0
   + flow_3_7_0_0 + flow_4_7_0_0 + flow_5_7_0_0 + flow_6_7_0_0
   - flow_7_1_0_0 - flow_7_2_0_0 - flow_7_3_0_0 - flow_7_5_0_0
   - flow_7_6_0_0 - flow_7_8_0_0 - flow_7_9_0_0 - flow_7_11_0_0
   - flow_7_29_0_0 + flow_8_7_0_0 + flow_9_7_0_0 + flow_11_7_0_0
   + flow_25_7_0_0 + flow_27_7_0_0 = 1
 one_parent_8: edge_1_8_0_0 + edge_2_8_0_0 + edge_3_8_0_0 + edge_5_8_0_0
   + edge_6_8_0_0 + edge_7_8_0_0 + edge_11_8_0_0 + edge_29_8_0_0 = 1
 consume_one_flow_unit_8: flow_1_8_0_0 + flow_2_8_0_0 + flow_3_8_0_0
   + flow_5_8_0_0 + flow_6_8_0_0 + flow_7_8_0_0 - flow_8_1_0_0
   - flow_8_2_0_0 - flow_8_3_0_0 - flow_8_5_0_0 - flow_8_7_0_0
   - flow_8_11_0_0 - flow_8_29_0_0 + flow_11_8_0_0 + flow_29_8_0_0 = 1
 one_parent_9: edge_4_9_0_0 + edge_6_9_0_0 + edge_7_9_0_0 + edge_10_9_0_0
   + edge_12_9_0_0 + edge_25_9_0_0 + edge_27_9_0_0 = 1
 consume_one_flow_unit_9: flow_4_9_0_0 + flow_6_9_0_0 + flow_7_9_0_0
   - flow_9_4_0_0 - flow_9_6_0_0 - flow_9_7_0_0 - flow_9_10_0_0
   - flow_9_12_0_0 - flow_9_25_0_0 - flow_9_27_0_0 - flow_9_29_0_0
   + flow_10_9_0_0 + flow_12_9_0_0 + flow_25_9_0_0 + flow_27_9_0_0 = 1
 one_parent_10: edge_2_10_0_0 + edge_4_10_0_0 + edge_6_10_0_0
   + edge_9_10_0_0 + edge_12_10_0_0 + edge_25_10_0_0 + edge_27_10_0_0 = 1
 consume_one_flow_unit_10: flow_2_10_0_0 + flow_4_10_0_0 + flow_6_10_0_0
   + flow_9_10_0_0 - flow_10_9_0_0 - flow_10_12_0_0 - flow_10_27_0_0
   + flow_12_10_0_0 + flow_25_10_0_0 + flow_27_10_0_0 = 1
 one_parent_11: edge_1_11_0_0 + edge_2_11_0_0 + edge_3_11_0_0
   + edge_5_11_0_0 + edge_6_11_0_0 + edge_7_11_0_0 + edge_8_11_0_0
   + edge_29_11_0_0 = 1
 consume_one_flow_unit_11: flow_1_11_0_0 + flow_2_11_0_0 + flow_3_11_0_0
   + flow_5_11_0_0 + flow_6_11_0_0 + flow_7_11_0_0 + flow_8_11_0_0
   - flow_11_1_0_0 - flow_11_2_0_0 - flow_11_3_0_0 - flow_11_5_0_0
   - flow_11_6_0_0 - flow_11_7_0_0 - flow_11_8_0_0 - flow_11_29_0_0
   + flow_29_11_0_0 = 1
 one_parent_12: edge_2_12_0_0 + edge_4_12_0_0 + edge_6_12_0_0
   + edge_9_12_0_0 + edge_10_12_0_0 + edge_25_12_0_0 + edge_27_12_0_0
   + edge_29_12_0_0 = 1
 consume_one_flow_unit_12: flow_2_12_0_0 + flow_4_12_0_0 + flow_6_12_0_0
   + flow_9_12_0_0 + flow_10_12_0_0 - flow_12_2_0_0 - flow_12_5_0_0
   - flow_12_9_0_0 - flow_12_10_0_0 - flow_12_25_0_0 - flow_12_27_0_0
   - flow_12_29_0_0 + flow_25_12_0_0 + flow_27_12_0_0 + flow_29_12_0_0 = 1
 one_parent_13: = 1
 consume_one_flow_unit_13: = 1
 one_parent_14: = 1
 consume_one_flow_unit_14: = 1
 one_parent_15: = 1
 consume_one_flow_unit_15: = 1
 one_parent_16: = 1
 consume_one_flow_unit_16: = 1
 one_parent_17: = 1
 consume_one_flow_unit_17: = 1
 one_parent_18: = 1
 consume_one_flow_unit_18: = 1
 one_parent_19: = 1
 consume_one_flow_unit_19: = 1
 one_parent_20: = 1
 consume_one_flow_unit_20: = 1
 one_parent_21: = 1
 consume_one_flow_unit_21: = 1
 one_parent_22: = 1
 consume_one_flow_unit_22: = 1
 one_parent_23: = 1
 consume_one_flow_unit_23: = 1
 one_parent_24: = 1
 consume_one_flow_unit_24: = 1
 one_parent_25: edge_0_25_0_0 + edge_2_25_0_0 + edge_3_25_0_0
   + edge_4_25_0_0 + edge_6_25_0_0 + edge_9_25_0_0 + edge_12_25_0_0
   + edge_27_25_0_0 = 1
 consume_one_flow_unit_25: flow_0_25_0_0 + flow_2_25_0_0 + flow_3_25_0_0
   + flow_4_25_0_0 + flow_6_25_0_0 + flow_9_25_0_0 + flow_12_25_0_0
   - flow_25_2_0_0 - flow_25_3_0_0 - flow_25_4_0_0 - flow_25_5_0_0
   - flow_25_6_0_0 - flow_25_7_0_0 - flow_25_9_0_0 - flow_25_10_0_0
   - flow_25_12_0_0 - flow_25_27_0_0 - flow_25_29_0_0 + flow_27_25_0_0 = 1
 one_parent_26: = 1
 consume_one_flow_unit_26: = 1
 one_parent_27: edge_0_27_0_0 + edge_2_27_0_0 + edge_4_27_0_0
   + edge_6_27_0_0 + edge_9_27_0_0 + edge_10_27_0_0 + edge_12_27_0_0
   + edge_25_27_0_0 = 1
 consume_one_flow_unit_27: flow_0_27_0_0 + flow_2_27_0_0 + flow_4_27_0_0
   + flow_6_27_0_0 + flow_9_27_0_0 + flow_10_27_0_0 + flow_12_27_0_0
   + flow_25_27_0_0 - flow_27_2_0_0 - flow_27_3_0_0 - flow_27_4_0_0
   - flow_27_5_0_0 - flow_27_6_0_0 - flow_27_7_0_0 - flow_27_9_0_0
   - flow_27_10_0_0 - flow_27_12_0_0 - flow_27_25_0_0 - flow_27_29_0_0 = 1
 one_parent_28: = 1
 consume_one_flow_unit_28: = 1
 one_parent_29: edge_1_29_0_0 + edge_2_29_0_0 + edge_3_29_0_0
   + edge_4_29_0_0 + edge_5_29_0_0 + edge_6_29_0_0 + edge_7_29_0_0
   + edge_8_29_0_0 + edge_9_29_0_0 + edge_11_29_0_0 + edge_12_29_0_0
   + edge_25_29_0_0 + edge_27_29_0_0 = 1
 consume_one_flow_unit_29: flow_1_29_0_0 + flow_2_29_0_0 + flow_3_29_0_0
   + flow_4_29_0_0 + flow_5_29_0_0 + flow_6_29_0_0 + flow_7_29_0_0
   + flow_8_29_0_0 + flow_9_29_0_0 + flow_11_29_0_0 + flow_12_29_0_0
   + flow_25_29_0_0 + flow_27_29_0_0 - flow_29_8_0_0 - flow_29_11_0_0
   - flow_29_12_0_0 = 1
 root_flow: flow_0_2_0_0 + flow_0_3_0_0 + flow_0_4_0_0 + flow_0_5_0_0
   + flow_0_6_0_0 + flow_0_7_0_0 + flow_0_25_0_0 + flow_0_27_0_0 = 29
 inactive_no_flow_0_2_0_0: flow_0_2_0_0 - 1000 edge_0_2_0_0 <= 0
 inactive_no_flow_0_3_0_0: flow_0_3_0_0 - 1000 edge_0_3_0_0 <= 0
 inactive_no_flow_0_4_0_0: flow_0_4_0_0 - 1000 edge_0_4_0_0 <= 0
 inactive_no_flow_0_5_0_0: flow_0_5_0_0 - 1000 edge_0_5_0_0 <= 0
 inactive_no_flow_0_6_0_0: flow_0_6_0_0 - 1000 edge_0_6_0_0 <= 0
 inactive_no_flow_0_7_0_0: flow_0_7_0_0 - 1000 edge_0_7_0_0 <= 0
 inactive_no_flow_0_25_0_0: flow_0_25_0_0 - 1000 edge_0_25_0_0 <= 0
 inactive_no_flow_0_27_0_0: flow_0_27_0_0 - 1000 edge_0_27_0_0 <= 0
 inactive_no_flow_1_2_0_0: flow_1_2_0_0 - 1000 edge_1_2_0_0 <= 0
 inactive_no_flow_1_3_0_0: flow_1_3_0_0 - 1000 edge_1_3_0_0 <= 0
 inactive_no_flow_1_5_0_0: flow_1_5_0_0 - 1000 edge_1_5_0_0 <= 0
 inactive_no_flow_1_6_0_0: flow_1_6_0_0 - 1000 edge_1_6_0_0 <= 0
 inactive_no_flow_1_7_0_0: flow_1_7_0_0 - 1000 edge_1_7_0_0 <= 0
 inactive_no_flow_1_8_0_0: flow_1_8_0_0 - 1000 edge_1_8_0_0 <= 0
 inactive_no_flow_1_11_0_0: flow_1_11_0_0 - 1000 edge_1_11_0_0 <= 0
 inactive_no_flow_1_29_0_0: flow_1_29_0_0 - 1000 edge_1_29_0_0 <= 0
 inactive_no_flow_2_1_0_0: flow_2_1_0_0 - 1000 edge_2_1_0_0 <= 0
 inactive_no_flow_2_3_0_0: flow_2_3_0_0 - 1000 edge_2_3_0_0 <= 0
 inactive_no_flow_2_4_0_0: flow_2_4_0_0 - 1000 edge_2_4_0_0 <= 0
 inactive_no_flow_2_5_0_0: flow_2_5_0_0 - 1000 edge_2_5_0_0 <= 0
 inactive_no_flow_2_6_0_0: flow_2_6_0_0 - 1000 edge_2_6_0_0 <= 0
 inactive_no_flow_2_7_0_0: flow_2_7_0_0 - 1000 edge_2_7_0_0 <= 0
 inactive_no_flow_2_8_0_0: flow_2_8_0_0 - 1000 edge_2_8_0_0 <= 0
 inactive_no_flow_2_10_0_0: flow_2_10_0_0 - 1000 edge_2_10_0_0 <= 0
 inactive_no_flow_2_11_0_0: flow_2_11_0_0 - 1000 edge_2_11_0_0 <= 0
 inactive_no_flow_2_12_0_0: flow_2_12_0_0 - 1000 edge_2_12_0_0 <= 0
 inactive_no_flow_2_25_0_0: flow_2_25_0_0 - 1000 edge_2_25_0_0 <= 0
 inactive_no_flow_2_27_0_0: flow_2_27_0_0 - 1000 edge_2_27_0_0 <= 0
 inactive_no_flow_2_29_0_0: flow_2_29_0_0 - 1000 edge_2_29_0_0 <= 0
 inactive_no_flow_3_1_0_0: flow_3_1_0_0 - 1000 edge_3_1_0_0 <= 0
 inactive_no_flow_3_2_0_0: flow_3_2_0_0 - 1000 edge_3_2_0_0 <= 0
 inactive_no_flow_3_4_0_0: flow_3_4_0_0 - 1000 edge_3_4_0_0 <= 0
 inactive_no_flow_3_5_0_0: flow_3_5_0_0 - 1000 edge_3_5_0_0 <= 0
 inactive_no_flow_3_6_0_0: flow_3_6_0_0 - 1000 edge_3_6_0_0 <= 0
 inactive_no_flow_3_7_0_0: flow_3_7_0_0 - 1000 edge_3_7_0_0 <= 0
 inactive_no_flow_3_8_0_0: flow_3_8_0_0 - 1000 edge_3_8_0_0 <= 0
 inactive_no_flow_3_11_0_0: flow_3_11_0_0 - 1000 edge_3_11_0_0 <= 0
 inactive_no_flow_3_25_0_0: flow_3_25_0_0 - 1000 edge_3_25_0_0 <= 0
 inactive_no_flow_3_29_0_0: flow_3_29_0_0 - 1000 edge_3_29_0_0 <= 0
 inactive_no_flow_4_2_0_0: flow_4_2_0_0 - 1000 edge_4_2_0_0 <= 0
 inactive_no_flow_4_3_0_0: flow_4_3_0_0 - 1000 edge_4_3_0_0 <= 0
 inactive_no_flow_4_5_0_0: flow_4_5_0_0 - 1000 edge_4_5_0_0 <= 0
 inactive_no_flow_4_6_0_0: flow_4_6_0_0 - 1000 edge_4_6_0_0 <= 0
 inactive_no_flow_4_7_0_0: flow_4_7_0_0 - 1000 edge_4_7_0_0 <= 0
 inactive_no_flow_4_9_0_0: flow_4_9_0_0 - 1000 edge_4_9_0_0 <= 0
 inactive_no_flow_4_10_0_0: flow_4_10_0_0 - 1000 edge_4_10_0_0 <= 0
 inactive_no_flow_4_12_0_0: flow_4_12_0_0 - 1000 edge_4_12_0_0 <= 0
 inactive_no_flow_4_25_0_0: flow_4_25_0_0 - 1000 edge_4_25_0_0 <= 0
 inactive_no_flow_4_27_0_0: flow_4_27_0_0 - 1000 edge_4_27_0_0 <= 0
 inactive_no_flow_4_29_0_0: flow_4_29_0_0 - 1000 edge_4_29_0_0 <= 0
 inactive_no_flow_5_1_0_0: flow_5_1_0_0 - 1000 edge_5_1_0_0 <= 0
 inactive_no_flow_5_2_0_0: flow_5_2_0_0 - 1000 edge_5_2_0_0 <= 0
 inactive_no_flow_5_3_0_0: flow_5_3_0_0 - 1000 edge_5_3_0_0 <= 0
 inactive_no_flow_5_6_0_0: flow_5_6_0_0 - 1000 edge_5_6_0_0 <= 0
 inactive_no_flow_5_7_0_0: flow_5_7_0_0 - 1000 edge_5_7_0_0 <= 0
 inactive_no_flow_5_8_0_0: flow_5_8_0_0 - 1000 edge_5_8_0_0 <= 0
 inactive_no_flow_5_11_0_0: flow_5_11_0_0 - 1000 edge_5_11_0_0 <= 0
 inactive_no_flow_5_29_0_0: flow_5_29_0_0 - 1000 edge_5_29_0_0 <= 0
 inactive_no_flow_6_1_0_0: flow_6_1_0_0 - 1000 edge_6_1_0_0 <= 0
 inactive_no_flow_6_2_0_0: flow_6_2_0_0 - 1000 edge_6_2_0_0 <= 0
 inactive_no_flow_6_3_0_0: flow_6_3_0_0 - 1000 edge_6_3_0_0 <= 0
 inactive_no_flow_6_4_0_0: flow_6_4_0_0 - 1000 edge_6_4_0_0 <= 0
 inactive_no_flow_6_5_0_0: flow_6_5_0_0 - 1000 edge_6_5_0_0 <= 0
 inactive_no_flow_6_7_0_0: flow_6_7_0_0 - 1000 edge_6_7_0_0 <= 0
 inactive_no_flow_6_8_0_0: flow_6_8_0_0 - 1000 edge_6_8_0_0 <= 0
 inactive_no_flow_6_9_0_0: flow_6_9_0_0 - 1000 edge_6_9_0_0 <= 0
 inactive_no_flow_6_10_0_0: flow_6_10_0_0 - 1000 edge_6_10_0_0 <= 0
 inactive_no_flow_6_11_0_0: flow_6_11_0_0 - 1000 edge_6_11_0_0 <= 0
 inactive_no_flow_6_12_0_0: flow_6_12_0_0 - 1000 edge_6_12_0_0 <= 0
 inactive_no_flow_6_25_0_0: flow_6_25_0_0 - 1000 edge_6_25_0_0 <= 0
 inactive_no_flow_6_27_0_0: flow_6_27_0_0 - 1000 edge_6_27_0_0 <= 0
 inactive_no_flow_6_29_0_0: flow_6_29_0_0 - 1000 edge_6_29_0_0 <= 0
 inactive_no_flow_7_1_0_0: flow_7_1_0_0 - 1000 edge_7_1_0_0 <= 0
 inactive_no_flow_7_2_0_0: flow_7_2_0_0 - 1000 edge_7_2_0_0 <= 0
 inactive_no_flow_7_3_0_0: flow_7_3_0_0 - 1000 edge_7_3_0_0 <= 0
 inactive_no_flow_7_5_0_0: flow_7_5_0_0 - 1000 edge_7_5_0_0 <= 0
 inactive_no_flow_7_6_0_0: flow_7_6_0_0 - 1000 edge_7_6_0_0 <= 0
 inactive_no_flow_7_8_0_0: flow_7_8_0_0 - 1000 edge_7_8_0_0 <= 0
 inactive_no_flow_7_9_0_0: flow_7_9_0_0 - 1000 edge_7_9_0_0 <= 0
 inactive_no_flow_7_11_0_0: flow_7_11_0_0 - 1000 edge_7_11_0_0 <= 0
 inactive_no_flow_7_29_0_0: flow_7_29_0_0 - 1000 edge_7_29_0_0 <= 0
 inactive_no_flow_8_1_0_0: flow_8_1_0_0 - 1000 edge_8_1_0_0 <= 0
 inactive_no_flow_8_2_0_0: flow_8_2_0_0 - 1000 edge_8_2_0_0 <= 0
 inactive_no_flow_8_3_0_0: flow_8_3_0_0 - 1000 edge_8_3_0_0 <= 0
 inactive_no_flow_8_5_0_0: flow_8_5_0_0 - 1000 edge_8_5_0_0 <= 0
 inactive_no_flow_8_7_0_0: flow_8_7_0_0 - 1000 edge_8_7_0_0 <= 0
 inactive_no_flow_8_11_0_0: flow_8_11_0_0 - 1000 edge_8_11_0_0 <= 0
 inactive_no_flow_8_29_0_0: flow_8_29_0_0 - 1000 edge_8_29_0_0 <= 0
 inactive_no_flow_9_4_0_0: flow_9_4_0_0 - 1000 edge_9_4_0_0 <= 0
 inactive_no_flow_9_6_0_0: flow_9_6_0_0 - 1000 edge_9_6_0_0 <= 0
 inactive_no_flow_9_7_0_0: flow_9_7_0_0 - 1000 edge_9_7_0_0 <= 0
 inactive_no_flow_9_10_0_0: flow_9_10_0_0 - 1000 edge_9_10_0_0 <= 0
 inactive_no_flow_9_12_0_0: flow_9_12_0_0 - 1000 edge_9_12_0_0 <= 0
 inactive_no_flow_9_25_0_0: flow_9_25_0_0 - 1000 edge_9_25_0_0 <= 0
 inactive_no_flow_9_27_0_0: flow_9_27_0_0 - 1000 edge_9_27_0_0 <= 0
 inactive_no_flow_9_29_0_0: flow_9_29_0_0 - 1000 edge_9_29_0_0 <= 0
 inactive_no_flow_10_9_0_0: flow_10_9_0_0 - 1000 edge_10_9_0_0 <= 0
 inactive_no_flow_10_12_0_0: flow_10_12_0_0 - 1000 edge_10_12_0_0 <= 0
 inactive_no_flow_10_27_0_0: flow_10_27_0_0 - 1000 edge_10_27_0_0 <= 0
 inactive_no_flow_11_1_0_0: flow_11_1_0_0 - 1000 edge_11_1_0_0 <= 0
 inactive_no_flow_11_2_0_0: flow_11_2_0_0 - 1000 edge_11_2_0_0 <= 0
 inactive_no_flow_11_3_0_0: flow_11_3_0_0 - 1000 edge_11_3_0_0 <= 0
 inactive_no_flow_11_5_0_0: flow_11_5_0_0 - 1000 edge_11_5_0_0 <= 0
 inactive_no_flow_11_6_0_0: flow_11_6_0_0 - 1000 edge_11_6_0_0 <= 0
 inactive_no_flow_11_7_0_0: flow_11_7_0_0 - 1000 edge_11_7_0_0 <= 0
 inactive_no_flow_11_8_0_0: flow_11_8_0_0 - 1000 edge_11_8_0_0 <= 0
 inactive_no_flow_11_29_0_0: flow_11_29_0_0 - 1000 edge_11_29_0_0 <= 0
 inactive_no_flow_12_2_0_0: flow_12_2_0_0 - 1000 edge_12_2_0_0 <= 0
 inactive_no_flow_12_5_0_0: flow_12_5_0_0 - 1000 edge_12_5_0_0 <= 0
 inactive_no_flow_12_9_0_0: flow_12_9_0_0 - 1000 edge_12_9_0_0 <= 0
 inactive_no_flow_12_10_0_0: flow_12_10_0_0 - 1000 edge_12_10_0_0 <= 0
 inactive_no_flow_12_25_0_0: flow_12_25_0_0 - 1000 edge_12_25_0_0 <= 0
 inactive_no_flow_12_27_0_0: flow_12_27_0_0 - 1000 edge_12_27_0_0 <= 0
 inactive_no_flow_12_29_0_0: flow_12_29_0_0 - 1000 edge_12_29_0_0 <= 0
 inactive_no_flow_25_2_0_0: flow_25_2_0_0 - 1000 edge_25_2_0_0 <= 0
 inactive_no_flow_25_3_0_0: flow_25_3_0_0 - 1000 edge_25_3_0_0 <= 0
 inactive_no_flow_25_4_0_0: flow_25_4_0_0 - 1000 edge_25_4_0_0 <= 0
 inactive_no_flow_25_5_0_0: flow_25_5_0_0 - 1000 edge_25_5_0_0 <= 0
 inactive_no_flow_25_6_0_0: flow_25_6_0_0 - 1000 edge_25_6_0_0 <= 0
 inactive_no_flow_25_7_0_0: flow_25_7_0_0 - 1000 edge_25_7_0_0 <= 0
 inactive_no_flow_25_9_0_0: flow_25_9_0_0 - 1000 edge_25_9_0_0 <= 0
 inactive_no_flow_25_10_0_0: flow_25_10_0_0 - 1000 edge_25_10_0_0 <= 0
 inactive_no_flow_25_12_0_0: flow_25_12_0_0 - 1000 edge_25_12_0_0 <= 0
 inactive_no_flow_25_27_0_0: flow_25_27_0_0 - 1000 edge_25_27_0_0 <= 0
 inactive_no_flow_25_29_0_0: flow_25_29_0_0 - 1000 edge_25_29_0_0 <= 0
 inactive_no_flow_27_2_0_0: flow_27_2_0_0 - 1000 edge_27_2_0_0 <= 0
 inactive_no_flow_27_3_0_0: flow_27_3_0_0 - 1000 edge_27_3_0_0 <= 0
 inactive_no_flow_27_4_0_0: flow_27_4_0_0 - 1000 edge_27_4_0_0 <= 0
 inactive_no_flow_27_5_0_0: flow_27_5_0_0 - 1000 edge_27_5_0_0 <= 0
 inactive_no_flow_27_6_0_0: flow_27_6_0_0 - 1000 edge_27_6_0_0 <= 0
 inactive_no_flow_27_7_0_0: flow_27_7_0_0 - 1000 edge_27_7_0_0 <= 0
 inactive_no_flow_27_9_0_0: flow_27_9_0_0 - 1000 edge_27_9_0_0 <= 0
 inactive_no_flow_27_10_0_0: flow_27_10_0_0 - 1000 edge_27_10_0_0 <= 0
 inactive_no_flow_27_12_0_0: flow_27_12_0_0 - 1000 edge_27_12_0_0 <= 0
 inactive_no_flow_27_25_0_0: flow_27_25_0_0 - 1000 edge_27_25_0_0 <= 0
 inactive_no_flow_27_29_0_0: flow_27_29_0_0 - 1000 edge_27_29_0_0 <= 0
 inactive_no_flow_29_8_0_0: flow_29_8_0_0 - 1000 edge_29_8_0_0 <= 0
 inactive_no_flow_29_11_0_0: flow_29_11_0_0 - 1000 edge_29_11_0_0 <= 0
 inactive_no_flow_29_12_0_0: flow_29_12_0_0 - 1000 edge_29_12_0_0 <= 0
Bounds
Binaries
 edge_0_2_0_0 edge_0_3_0_0 edge_0_4_0_0 edge_0_5_0_0 edge_0_6_0_0
 edge_0_7_0_0 edge_0_25_0_0 edge_0_27_0_0 edge_1_2_0_0 edge_1_3_0_0
 edge_1_5_0_0 edge_1_6_0_0 edge_1_7_0_0 edge_1_8_0_0 edge_1_11_0_0
 edge_1_29_0_0 edge_2_1_0_0 edge_2_3_0_0 edge_2_4_0_0 edge_2_5_0_0
 edge_2_6_0_0 edge_2_7_0_0 edge_2_8_0_0 edge_2_10_0_0 edge_2_11_0_0
 edge_2_12_0_0 edge_2_25_0_0 edge_2_27_0_0 edge_2_29_0_0 edge_3_1_0_0
 edge_3_2_0_0 edge_3_4_0_0 edge_3_5_0_0 edge_3_6_0_0 edge_3_7_0_0
 edge_3_8_0_0 edge_3_11_0_0 edge_3_25_0_0 edge_3_29_0_0 edge_4_2_0_0
 edge_4_3_0_0 edge_4_5_0_0 edge_4_6_0_0 edge_4_7_0_0 edge_4_9_0_0
 edge_4_10_0_0 edge_4_12_0_0 edge_4_25_0_0 edge_4_27_0_0 edge_4_29_0_0
 edge_5_1_0_0 edge_5_2_0_0 edge_5_3_0_0 edge_5_6_0_0 edge_5_7_0_0
 edge_5_8_0_0 edge_5_11_0_0 edge_5_29_0_0 edge_6_1_0_0 edge_6_2_0_0
 edge_6_3_0_0 edge_6_4_0_0 edge_6_5_0_0 edge_6_7_0_0 edge_6_8_0_0
 edge_6_9_0_0 edge_6_10_0_0 edge_6_11_0_0 edge_6_12_0_0 edge_6_25_0_0
 edge_6_27_0_0 edge_6_29_0_0 edge_7_1_0_0 edge_7_2_0_0 edge_7_3_0_0
 edge_7_5_0_0 edge_7_6_0_0 edge_7_8_0_0 edge_7_9_0_0 edge_7_11_0_0
 edge_7_29_0_0 edge_8_1_0_0 edge_8_2_0_0 edge_8_3_0_0 edge_8_5_0_0
 edge_8_7_0_0 edge_8_11_0_0 edge_8_29_0_0 edge_9_4_0_0 edge_9_6_0_0
 edge_9_7_0_0 edge_9_10_0_0 edge_9_12_0_0 edge_9_25_0_0 edge_9_27_0_0
 edge_9_29_0_0 edge_10_9_0_0 edge_10_12_0_0 edge_10_27_0_0 edge_11_1_0_0
 edge_11_2_0_0 edge_11_3_0_0 edge_11_5_0_0 edge_11_6_0_0 edge_11_7_0_0
 edge_11_8_0_0 edge_11_29_0_0 edge_12_2_0_0 edge_12_5_0_0 edge_12_9_0_0
 edge_12_10_0_0 edge_12_25_0_0 edge_12_27_0_0 edge_12_29_0_0 edge_25_2_0_0
 edge_25_3_0_0 edge_25_4_0_0 edge_25_5_0_0 edge_25_6_0_0 edge_25_7_0_0
 edge_25_9_0_0 edge_25_10_0_0 edge_25_12_0_0 edge_25_27_0_0 edge_25_29_0_0
 edge_27_2_0_0 edge_27_3_0_0 edge_27_4_0_0 edge_27_5_0_0 edge_27_6_0_0
 edge_27_7_0_0 edge_27_9_0_0 edge_27_10_0_0 edge_27_12_0_0 edge_27_25_0_0
 edge_27_29_0_0 edge_29_8_0_0 edge_29_11_0_0 edge_29_12_0_0
End
